# Solution for model cross-pollination_srl_ilp
# Objective value = 1.8703646696143499e+00
Z_684_0_0 0
Z_684_0_1 0
Z_684_0_2 1
Z_684_0_3 0
Z_684_0_4 0
Z_335_0_0 0
Z_335_0_1 0
Z_335_0_2 1
Z_335_0_3 0
Z_335_0_4 0
